c FILE: david.col
c Translated from Stanford GraphBase File: david.gb
c Stanford GraphBase ID: book(?david?,87,0,1,64,0,0,0)
p edge 87 812
e 1 20
e 1 14
e 1 4
e 1 79
e 1 66
e 1 83
e 2 32
e 2 55
e 2 74
e 2 46
e 2 7
e 2 4
e 2 34
e 2 72
e 2 29
e 2 23
e 2 43
e 2 42
e 2 81
e 2 53
e 2 19
e 2 39
e 2 86
e 2 16
e 2 56
e 2 87
e 2 33
e 2 58
e 2 76
e 2 67
e 2 35
e 2 54
e 2 83
e 2 79
e 2 11
e 2 66
e 2 80
e 3 22
e 3 23
e 3 72
e 3 58
e 3 87
e 3 83
e 3 33
e 4 12
e 4 87
e 4 19
e 4 74
e 4 32
e 4 55
e 4 46
e 4 34
e 4 2
e 4 21
e 4 18
e 4 59
e 4 1
e 4 49
e 4 14
e 4 20
e 4 83
e 4 79
e 4 66
e 5 31
e 5 34
e 5 83
e 5 78
e 6 47
e 6 83
e 7 35
e 7 2
e 7 19
e 7 87
e 7 33
e 7 34
e 7 83
e 7 58
e 8 71
e 8 49
e 8 83
e 9 11
e 9 76
e 9 14
e 9 40
e 9 83
e 9 57
e 10 42
e 10 83
e 11 9
e 11 40
e 11 14
e 11 67
e 11 83
e 11 76
e 11 2
e 12 74
e 12 32
e 12 46
e 12 34
e 12 14
e 12 21
e 12 20
e 12 4
e 12 68
e 12 36
e 12 52
e 12 83
e 13 43
e 13 27
e 13 85
e 13 60
e 13 19
e 14 12
e 14 74
e 14 32
e 14 46
e 14 34
e 14 21
e 14 49
e 14 1
e 14 9
e 14 40
e 14 11
e 14 76
e 14 4
e 14 20
e 14 83
e 14 79
e 14 66
e 15 61
e 15 49
e 15 83
e 16 67
e 16 77
e 16 63
e 16 22
e 16 42
e 16 76
e 16 66
e 16 2
e 16 83
e 17 37
e 17 84
e 17 19
e 17 87
e 17 58
e 17 45
e 17 73
e 17 50
e 17 83
e 18 4
e 18 71
e 18 59
e 18 83
e 18 49
e 19 51
e 19 23
e 19 72
e 19 4
e 19 55
e 19 7
e 19 42
e 19 81
e 19 53
e 19 43
e 19 27
e 19 85
e 19 13
e 19 60
e 19 2
e 19 32
e 19 74
e 19 35
e 19 66
e 19 71
e 19 46
e 19 34
e 19 37
e 19 84
e 19 87
e 19 58
e 19 17
e 19 45
e 19 73
e 19 50
e 19 68
e 19 69
e 19 52
e 19 49
e 19 83
e 20 12
e 20 74
e 20 32
e 20 46
e 20 34
e 20 87
e 20 59
e 20 71
e 20 21
e 20 49
e 20 1
e 20 4
e 20 14
e 20 83
e 20 79
e 20 66
e 21 12
e 21 74
e 21 32
e 21 46
e 21 34
e 21 14
e 21 4
e 21 66
e 21 83
e 21 79
e 21 20
e 22 3
e 22 77
e 22 63
e 22 16
e 22 42
e 22 83
e 23 43
e 23 19
e 23 2
e 23 35
e 23 3
e 23 87
e 23 29
e 23 67
e 23 72
e 23 83
e 23 33
e 24 67
e 24 66
e 24 80
e 24 83
e 25 83
e 26 83
e 27 43
e 27 85
e 27 13
e 27 60
e 27 19
e 28 51
e 28 69
e 28 68
e 28 83
e 29 35
e 29 2
e 29 87
e 29 33
e 29 72
e 29 23
e 29 83
e 29 67
e 30 39
e 30 83
e 31 5
e 31 34
e 31 67
e 31 44
e 31 76
e 31 83
e 32 12
e 32 14
e 32 21
e 32 20
e 32 4
e 32 66
e 32 87
e 32 2
e 32 19
e 32 70
e 32 46
e 32 74
e 32 55
e 32 34
e 32 83
e 33 7
e 33 29
e 33 67
e 33 58
e 33 3
e 33 23
e 33 72
e 33 87
e 33 2
e 33 83
e 34 12
e 34 14
e 34 21
e 34 20
e 34 4
e 34 87
e 34 35
e 34 2
e 34 71
e 34 19
e 34 7
e 34 58
e 34 5
e 34 66
e 34 70
e 34 46
e 34 74
e 34 32
e 34 55
e 34 83
e 34 31
e 35 7
e 35 87
e 35 58
e 35 34
e 35 29
e 35 23
e 35 19
e 35 86
e 35 66
e 35 72
e 35 56
e 35 76
e 35 67
e 35 2
e 35 54
e 35 83
e 36 52
e 36 12
e 36 83
e 37 84
e 37 19
e 37 87
e 37 58
e 37 17
e 37 45
e 37 73
e 37 50
e 37 83
e 38 83
e 39 30
e 39 66
e 39 2
e 39 83
e 40 11
e 40 76
e 40 14
e 40 83
e 40 9
e 40 57
e 41 83
e 42 10
e 42 43
e 42 19
e 42 66
e 42 87
e 42 2
e 42 81
e 42 53
e 42 77
e 42 63
e 42 16
e 42 22
e 42 67
e 42 83
e 43 23
e 43 72
e 43 81
e 43 53
e 43 66
e 43 2
e 43 42
e 43 87
e 43 83
e 43 27
e 43 85
e 43 13
e 43 60
e 43 19
e 44 31
e 44 76
e 44 83
e 45 37
e 45 84
e 45 19
e 45 87
e 45 58
e 45 17
e 45 73
e 45 50
e 45 83
e 46 12
e 46 14
e 46 21
e 46 20
e 46 4
e 46 66
e 46 87
e 46 2
e 46 71
e 46 19
e 46 70
e 46 74
e 46 32
e 46 55
e 46 34
e 46 83
e 47 6
e 47 83
e 48 83
e 49 61
e 49 15
e 49 8
e 49 14
e 49 20
e 49 66
e 49 71
e 49 59
e 49 18
e 49 79
e 49 4
e 49 68
e 49 69
e 49 52
e 49 19
e 49 83
e 50 37
e 50 84
e 50 19
e 50 87
e 50 58
e 50 17
e 50 45
e 50 73
e 50 83
e 51 85
e 51 60
e 51 19
e 51 28
e 51 69
e 51 68
e 51 83
e 52 68
e 52 69
e 52 19
e 52 49
e 52 36
e 52 12
e 52 83
e 53 43
e 53 66
e 53 87
e 53 2
e 53 19
e 53 83
e 53 81
e 53 42
e 54 76
e 54 67
e 54 35
e 54 2
e 54 83
e 55 4
e 55 66
e 55 87
e 55 19
e 55 2
e 55 70
e 55 46
e 55 74
e 55 32
e 55 34
e 55 83
e 56 83
e 56 35
e 56 2
e 57 40
e 57 83
e 57 9
e 58 71
e 58 69
e 58 35
e 58 72
e 58 37
e 58 84
e 58 19
e 58 17
e 58 45
e 58 73
e 58 50
e 58 34
e 58 7
e 58 87
e 58 33
e 58 3
e 58 2
e 58 83
e 59 20
e 59 4
e 59 71
e 59 83
e 59 49
e 59 18
e 60 51
e 60 43
e 60 27
e 60 85
e 60 13
e 60 19
e 61 15
e 61 49
e 61 83
e 62 83
e 63 77
e 63 16
e 63 22
e 63 42
e 63 83
e 64 83
e 65 83
e 66 74
e 66 32
e 66 55
e 66 46
e 66 43
e 66 81
e 66 53
e 66 42
e 66 87
e 66 86
e 66 35
e 66 19
e 66 39
e 66 16
e 66 21
e 66 49
e 66 34
e 66 67
e 66 24
e 66 4
e 66 14
e 66 20
e 66 1
e 66 76
e 66 83
e 66 80
e 66 79
e 66 2
e 67 16
e 67 42
e 67 87
e 67 33
e 67 29
e 67 72
e 67 23
e 67 35
e 67 54
e 67 2
e 67 31
e 67 66
e 67 11
e 67 24
e 67 76
e 67 80
e 67 83
e 68 19
e 68 49
e 68 52
e 68 28
e 68 51
e 68 69
e 68 83
e 68 12
e 69 71
e 69 58
e 69 19
e 69 49
e 69 52
e 69 28
e 69 51
e 69 68
e 69 83
e 70 46
e 70 74
e 70 32
e 70 55
e 70 34
e 70 83
e 71 8
e 71 58
e 71 69
e 71 20
e 71 46
e 71 34
e 71 19
e 71 59
e 71 49
e 71 18
e 71 83
e 72 43
e 72 19
e 72 2
e 72 58
e 72 3
e 72 35
e 72 87
e 72 29
e 72 67
e 72 23
e 72 83
e 72 33
e 73 37
e 73 84
e 73 19
e 73 58
e 73 17
e 73 45
e 73 50
e 73 87
e 73 83
e 74 12
e 74 14
e 74 21
e 74 20
e 74 4
e 74 66
e 74 87
e 74 2
e 74 19
e 74 70
e 74 46
e 74 32
e 74 55
e 74 34
e 74 83
e 75 83
e 76 16
e 76 35
e 76 54
e 76 2
e 76 9
e 76 40
e 76 14
e 76 11
e 76 67
e 76 80
e 76 44
e 76 31
e 76 66
e 76 83
e 77 63
e 77 16
e 77 22
e 77 42
e 77 83
e 78 83
e 78 5
e 79 21
e 79 1
e 79 49
e 79 4
e 79 14
e 79 20
e 79 83
e 79 2
e 79 66
e 80 24
e 80 67
e 80 76
e 80 66
e 80 83
e 80 2
e 81 43
e 81 66
e 81 87
e 81 2
e 81 19
e 81 83
e 81 53
e 81 42
e 82 83
e 83 56
e 83 10
e 83 43
e 83 81
e 83 53
e 83 30
e 83 77
e 83 63
e 83 22
e 83 42
e 83 37
e 83 84
e 83 17
e 83 45
e 83 50
e 83 73
e 83 61
e 83 15
e 83 39
e 83 86
e 83 16
e 83 21
e 83 8
e 83 71
e 83 59
e 83 18
e 83 62
e 83 38
e 83 26
e 83 65
e 83 64
e 83 7
e 83 29
e 83 3
e 83 82
e 83 23
e 83 72
e 83 87
e 83 33
e 83 58
e 83 35
e 83 2
e 83 54
e 83 75
e 83 41
e 83 5
e 83 78
e 83 70
e 83 46
e 83 74
e 83 32
e 83 55
e 83 34
e 83 47
e 83 6
e 83 11
e 83 40
e 83 9
e 83 57
e 83 25
e 83 24
e 83 49
e 83 19
e 83 28
e 83 51
e 83 69
e 83 68
e 83 36
e 83 52
e 83 12
e 83 48
e 83 67
e 83 4
e 83 14
e 83 20
e 83 79
e 83 1
e 83 44
e 83 31
e 83 76
e 83 66
e 83 80
e 84 37
e 84 19
e 84 87
e 84 58
e 84 17
e 84 45
e 84 73
e 84 50
e 84 83
e 85 51
e 85 43
e 85 27
e 85 13
e 85 60
e 85 19
e 86 35
e 86 66
e 86 2
e 86 83
e 87 20
e 87 4
e 87 74
e 87 32
e 87 55
e 87 46
e 87 34
e 87 35
e 87 43
e 87 66
e 87 42
e 87 81
e 87 53
e 87 7
e 87 37
e 87 84
e 87 19
e 87 17
e 87 45
e 87 50
e 87 73
e 87 29
e 87 72
e 87 23
e 87 67
e 87 58
e 87 3
e 87 33
e 87 2
e 87 83
